
Welcome to IBM(R) ILOG(R) CPLEX(R) Interactive Optimizer 22.1.1.0
  with Simplex, Mixed Integer & Barrier Optimizers
5725-A06 5725-A29 5724-Y48 5724-Y49 5724-Y54 5724-Y55 5655-Y21
Copyright IBM Corp. 1988, 2022.  All Rights Reserved.

Type 'help' for a list of available commands.
Type 'help' followed by a command name for more
information on commands.

CPLEX> Selected objective sense:  MINIMIZE
Selected objective  name:  00000000
Selected RHS        name:  RHS1
Selected bound      name:  BOUND
Problem 'ee.mps' read.
Read time = 0.02 sec. (3.14 ticks)
CPLEX> New value for time limit in seconds: 7200
CPLEX> New value for parallel optimization mode: -1
CPLEX> New value for default parallel thread count: 40
CPLEX> New value for mixed integer optimality gap tolerance: 1e-13
CPLEX> Version identifier: 22.1.1.0 | 2022-11-28 | 9160aff4d
CPXPARAM_Threads                                 40
CPXPARAM_Parallel                                -1
CPXPARAM_TimeLimit                               7200
CPXPARAM_MIP_Tolerances_MIPGap                   1e-13
Found incumbent of value 0.000000 after 0.00 sec. (0.31 ticks)
Tried aggregator 2 times.
MIP Presolve eliminated 182 rows and 2745 columns.
MIP Presolve modified 5862 coefficients.
Aggregator did 713 substitutions.
Reduced MIP has 3624 rows, 7744 columns, and 28667 nonzeros.
Reduced MIP has 7744 binaries, 0 generals, 0 SOSs, and 0 indicators.
Presolve time = 0.07 sec. (68.81 ticks)
Probing time = 0.03 sec. (5.30 ticks)
Tried aggregator 1 time.
Detecting symmetries...
Reduced MIP has 3624 rows, 7744 columns, and 28667 nonzeros.
Reduced MIP has 7744 binaries, 0 generals, 0 SOSs, and 0 indicators.
Presolve time = 0.02 sec. (21.96 ticks)
Probing time = 0.02 sec. (5.09 ticks)
Clique table members: 18558.
MIP emphasis: balance optimality and feasibility.
MIP search method: dynamic search.
Parallel mode: opportunistic, using up to 40 threads.
Root relaxation solution time = 0.12 sec. (100.93 ticks)

        Nodes                                         Cuts/
   Node  Left     Objective  IInf  Best Integer    Best Bound    ItCnt     Gap

*     0+    0                            0.0000  -1.31000e+13              --- 
*     0+    0                      -3.30000e+12  -1.31000e+13           296.97%
*     0+    0                      -4.40000e+12  -1.31000e+13           197.73%
*     0+    0                      -4.40000e+12  -1.31000e+13           197.73%
*     0+    0                      -5.39000e+12  -1.31000e+13           143.04%
*     0+    0                      -5.50000e+12  -1.31000e+13           138.18%
      0     0  -1.30900e+13    72  -5.50000e+12  -1.30900e+13     2421  138.00%
*     0+    0                      -1.30900e+13  -1.30900e+13             0.00%
      0     0  -1.30900e+13    50  -1.30900e+13      Cuts: 97     2850    0.00%
      0     0  -1.30900e+13    84  -1.30900e+13      Cuts: 37     3009    0.00%
*     0+    0                      -1.30900e+13  -1.30900e+13             0.00%
*     0+    0                      -1.30900e+13  -1.30900e+13             0.00%
*     0+    0                      -1.30900e+13  -1.30900e+13             0.00%

Repeating presolve.
Tried aggregator 2 times.
MIP Presolve eliminated 2201 rows and 5157 columns.
MIP Presolve added 34 rows and 0 columns.
MIP Presolve modified 217 coefficients.
Aggregator did 459 substitutions.
Reduced MIP has 998 rows, 2063 columns, and 7302 nonzeros.
Reduced MIP has 2063 binaries, 0 generals, 0 SOSs, and 0 indicators.
Presolve time = 0.04 sec. (40.46 ticks)
Probing fixed 3 vars, tightened 0 bounds.
Probing time = 0.02 sec. (24.79 ticks)
Tried aggregator 1 time.
Detecting symmetries...
MIP Presolve eliminated 24 rows and 15 columns.
Reduced MIP has 974 rows, 2046 columns, and 7224 nonzeros.
Reduced MIP has 2046 binaries, 0 generals, 0 SOSs, and 0 indicators.
Presolve time = 0.01 sec. (10.49 ticks)
Represolve time = 0.08 sec. (90.39 ticks)
Probing time = 0.00 sec. (2.81 ticks)
Clique table members: 4816.
MIP emphasis: balance optimality and feasibility.
MIP search method: dynamic search.
Parallel mode: opportunistic, using up to 40 threads.
Root relaxation solution time = 0.03 sec. (24.85 ticks)

        Nodes                                         Cuts/
   Node  Left     Objective  IInf  Best Integer    Best Bound    ItCnt     Gap

*     0+    0                      -1.30900e+13  -1.30900e+13             0.00%
      0     0  -1.30900e+13    96  -1.30900e+13  -1.30900e+13     4287    0.00%
      0     0  -1.30900e+13    41  -1.30900e+13      Cuts: 91     4435    0.00%
      0     0  -1.30900e+13    31  -1.30900e+13      Cuts: 35     4477    0.00%
      0     0  -1.30900e+13    66  -1.30900e+13      Cuts: 15     4509    0.00%
      0     0  -1.30900e+13    69  -1.30900e+13      Cuts: 18     4527    0.00%
*     0+    0                      -1.30900e+13  -1.30900e+13             0.00%
*     0+    0                      -1.30900e+13  -1.30900e+13             0.00%

Repeating presolve.
Tried aggregator 3 times.
MIP Presolve eliminated 675 rows and 1511 columns.
MIP Presolve modified 16 coefficients.
Aggregator did 36 substitutions.
Reduced MIP has 263 rows, 498 columns, and 1640 nonzeros.
Reduced MIP has 498 binaries, 0 generals, 0 SOSs, and 0 indicators.
Presolve time = 0.01 sec. (5.53 ticks)
Probing fixed 1 vars, tightened 0 bounds.
Probing time = 0.00 sec. (0.74 ticks)
Tried aggregator 1 time.
Detecting symmetries...
MIP Presolve eliminated 0 rows and 1 columns.
Reduced MIP has 263 rows, 497 columns, and 1636 nonzeros.
Reduced MIP has 497 binaries, 0 generals, 0 SOSs, and 0 indicators.
Presolve time = 0.00 sec. (1.15 ticks)
Represolve time = 0.02 sec. (17.19 ticks)
Probing time = 0.00 sec. (0.70 ticks)
Clique table members: 1212.
MIP emphasis: balance optimality and feasibility.
MIP search method: dynamic search.
Parallel mode: opportunistic, using up to 40 threads.
Root relaxation solution time = 0.01 sec. (7.31 ticks)

        Nodes                                         Cuts/
   Node  Left     Objective  IInf  Best Integer    Best Bound    ItCnt     Gap

*     0+    0                      -1.30900e+13  -1.30900e+13             0.00%
      0     0  -1.30900e+13    56  -1.30900e+13  -1.30900e+13     4910    0.00%
      0     0  -1.30900e+13    70  -1.30900e+13      Cuts: 58     4964    0.00%
      0     0  -1.30900e+13    70  -1.30900e+13      Cuts: 42     5005    0.00%
      0     3    infeasible        -1.30900e+13  -1.30900e+13     5018    0.00%
Elapsed time = 1.24 sec. (861.82 ticks, tree = 0.02 MB, solutions = 14)

GUB cover cuts applied:  8
Clique cuts applied:  35
Cover cuts applied:  56
Mixed integer rounding cuts applied:  15
Zero-half cuts applied:  29
Lift and project cuts applied:  8
Gomory fractional cuts applied:  16

Root node processing (before b&c):
  Real time             =    1.14 sec. (862.81 ticks)
Parallel b&c, 40 threads:
  Real time             =    0.28 sec. (11.36 ticks)
  Sync time (average)   =    0.17 sec.
  Wait time (average)   =    0.00 sec.
                          ------------
Total (root+branch&cut) =    1.42 sec. (874.17 ticks)

Solution pool: 14 solutions saved.

MIP - Integer optimal solution:  Objective = -1.3089999090e+13
Solution time =    1.46 sec.  Iterations = 6062  Nodes = 57
Deterministic time = 874.20 ticks  (598.89 ticks/sec)

CPLEX> Solution 'p15' written to file 'ee.sol'.
CPLEX> 